NAME: random-74-16432
TYPE: TSP
COMMENT: size=74 seed=16432
DIMENSION: 150
EDGE_WEIGHT_TYPE: EUC_2D
NODE_COORD_SECTION
+0 624 401
-0 624 401
+1 922 245
-1 877 11
+2 922 662
-2 333 135
+3 406 648
-3 318 808
+4 148 406
-4 780 978
+5 476 613
-5 622 488
+6 32 330
-6 151 81
+7 267 633
-7 78 804
+8 320 331
-8 455 185
+9 363 805
-9 380 731
+10 571 489
-10 298 939
+11 385 322
-11 283 873
+12 601 587
-12 467 146
+13 27 309
-13 335 488
+14 450 422
-14 780 331
+15 249 82
-15 667 794
+16 868 797
-16 733 226
+17 765 539
-17 867 928
+18 529 911
-18 192 391
+19 302 718
-19 689 576
+20 186 788
-20 508 568
+21 595 672
-21 601 935
+22 151 889
-22 559 785
+23 911 226
-23 553 565
+24 475 515
-24 241 433
+25 716 368
-25 79 986
+26 509 385
-26 769 183
+27 54 951
-27 482 927
+28 376 108
-28 571 844
+29 969 103
-29 808 463
+30 55 360
-30 905 327
+31 313 215
-31 899 486
+32 708 185
-32 919 722
+33 334 899
-33 11 635
+34 723 256
-34 616 814
+35 568 739
-35 530 826
+36 533 28
-36 970 874
+37 846 123
-37 176 912
+38 750 354
-38 613 356
+39 794 773
-39 502 620
+40 552 876
-40 357 307
+41 314 656
-41 864 157
+42 969 614
-42 347 64
+43 258 561
-43 559 939
+44 374 348
-44 540 897
+45 599 240
-45 580 925
+46 275 528
-46 223 375
+47 966 625
-47 487 665
+48 865 482
-48 260 723
+49 240 893
-49 635 167
+50 721 354
-50 36 818
+51 708 242
-51 102 165
+52 755 963
-52 924 563
+53 590 543
-53 883 79
+54 477 841
-54 763 489
+55 47 954
-55 229 295
+56 210 650
-56 331 63
+57 679 918
-57 188 192
+58 722 399
-58 360 569
+59 797 617
-59 740 176
+60 612 985
-60 106 254
+61 16 539
-61 233 628
+62 648 823
-62 785 558
+63 627 407
-63 364 760
+64 238 38
-64 708 680
+65 752 601
-65 97 839
+66 890 121
-66 770 997
+67 227 757
-67 629 10
+68 718 911
-68 317 355
+69 981 768
-69 773 308
+70 643 289
-70 984 372
+71 258 149
-71 562 406
+72 171 786
-72 971 351
+73 145 81
-73 918 734
+74 501 541
-74 668 859
PRECEDENCE_SECTION
+0 -0
+1 -1
+2 -2
+3 -3
+4 -4
+5 -5
+6 -6
+7 -7
+8 -8
+9 -9
+10 -10
+11 -11
+12 -12
+13 -13
+14 -14
+15 -15
+16 -16
+17 -17
+18 -18
+19 -19
+20 -20
+21 -21
+22 -22
+23 -23
+24 -24
+25 -25
+26 -26
+27 -27
+28 -28
+29 -29
+30 -30
+31 -31
+32 -32
+33 -33
+34 -34
+35 -35
+36 -36
+37 -37
+38 -38
+39 -39
+40 -40
+41 -41
+42 -42
+43 -43
+44 -44
+45 -45
+46 -46
+47 -47
+48 -48
+49 -49
+50 -50
+51 -51
+52 -52
+53 -53
+54 -54
+55 -55
+56 -56
+57 -57
+58 -58
+59 -59
+60 -60
+61 -61
+62 -62
+63 -63
+64 -64
+65 -65
+66 -66
+67 -67
+68 -68
+69 -69
+70 -70
+71 -71
+72 -72
+73 -73
+74 -74
EOF
